peakDumbCharging = 11100; 
Machine = anon_enum(16); 
machineSpeed = [3700,3700,3700,3700,3700,3700,3700,3700,3700,3700,3700,3700,3700,3700,3700,3700]; 
machineLoad = [3700,3700,3700,3700,3700,3700,3700,3700,3700,3700,3700,3700,3700,3700,3700,3700]; 
Car = anon_enum(13); 
demandCar = [5600,18120,3440,4760,5000,5240,7600,7960,9320,6640,17280,15440,27520]; 
arrivalCar = [74,73,73,68,67,63,59,52,51,48,47,45,35]; 
departureCar = [78,80,75,72,71,67,68,55,57,51,57,50,50]; 
